Reading model...
...model read.
creating competitive generators file...
...competitive generators recorded.
Loading data...
.. day-ahead data with real-time VRE data read.
Compiling instance...
...instance created.
Creating Offer Mitigation (model will solve as dispatch if TRUE)...
...storage offer mitigation file created
LPStorage
running bound DA offers as LP
Solving...

Welcome to IBM(R) ILOG(R) CPLEX(R) Interactive Optimizer 12.9.0.0
  with Simplex, Mixed Integer & Barrier Optimizers
5725-A06 5725-A29 5724-Y48 5724-Y49 5724-Y54 5724-Y55 5655-Y21
Copyright IBM Corp. 1988, 2019.  All Rights Reserved.

Type 'help' for a list of available commands.
Type 'help' followed by a command name for more
information on commands.

CPLEX> Logfile 'cplex.log' closed.
Logfile 'C:\Users\Luke\Desktop\competitiveMPEC_1.16\logs\tmpg0v4x3gt.cplex.log' open.
CPLEX> New value for parallel optimization mode: -1
CPLEX> New value for mixed integer optimality gap tolerance: 0.01
CPLEX> New value for feasibility tolerance: 1e-05
CPLEX> New value for deterministic time limit in ticks: 250000
CPLEX> Problem 'C:\Users\Luke\Desktop\competitiveMPEC_1.16\logs\tmprn3fwrns.pyomo.lp' read.
Read time = 0.03 sec. (2.99 ticks)
CPLEX> Problem name         : C:\Users\Luke\Desktop\competitiveMPEC_1.16\logs\tmprn3fwrns.pyomo.lp
Objective sense      : Minimize
Variables            :   25839  [Nneg: 889,  Box: 21470,  Free: 3480]
Objective nonzeros   :    2544
Linear constraints   :   27297  [Less: 13813,  Greater: 4416,  Equal: 9068]
  Nonzeros           :   87372
  RHS nonzeros       :   12174

Variables            : Min LB: -5000.000        Max UB: 5000.000       
Objective nonzeros   : Min   : 15.73158         Max   : 124.0997       
Linear constraints   :
  Nonzeros           : Min   : 0.8500000        Max   : 3000.000       
  RHS nonzeros       : Min   : 0.07500000       Max   : 90000.00       
CPLEX> CPXPARAM_Parallel                                -1
CPXPARAM_Simplex_Tolerances_Feasibility          1.0000000000000001e-05
CPXPARAM_DetTimeLimit                            250000
CPXPARAM_MIP_Tolerances_MIPGap                   0.01
Parallel mode: opportunistic, using up to 24 threads for concurrent optimization.
Tried aggregator 1 time.
LP Presolve eliminated 22001 rows and 17622 columns.
Aggregator did 752 substitutions.
Reduced LP has 4544 rows, 7465 columns, and 19825 nonzeros.
Presolve time = 0.05 sec. (27.50 ticks)

Iteration log . . .
Iteration:     1   Dual objective     =       -578714.850070
Perturbation started.
Iteration:   101   Dual objective     =       -578714.850070
Iteration:   411   Dual objective     =       -310949.188811
Iteration:   739   Dual objective     =        -91058.071404
Iteration:  1077   Dual objective     =        -91057.749578
Iteration:  1403   Dual objective     =        -91057.484484
Iteration:  1752   Dual objective     =        -91057.208351
Iteration:  2066   Dual objective     =        -91057.020088
Iteration:  2347   Dual objective     =        -91056.969695
Iteration:  2603   Dual objective     =        -91056.943776
Iteration:  2833   Dual objective     =         21223.387991
Iteration:  3076   Dual objective     =        207204.696631
Iteration:  3355   Dual objective     =        226971.999080
Iteration:  3580   Dual objective     =        230675.749847
Iteration:  3898   Dual objective     =        231005.927097
Removing perturbation.

Dual simplex solved model.


Dual simplex - Optimal:  Objective =  2.3100736133e+05
Solution time =    0.11 sec.  Iterations = 4162 (0)
Deterministic time = 85.42 ticks  (783.67 ticks/sec)

CPLEX> Solution written to file 'C:\Users\Luke\Desktop\competitiveMPEC_1.16\logs\tmpk38p1fk1.cplex.sol'.
CPLEX> Exporting results... 
